
List of user-set options:

                                    Name   Value                used
                           compl_inf_tol = 1                     yes
                         constr_viol_tol = 1                     yes
                            dual_inf_tol = 1000                  yes
                           linear_solver = ma97                  yes
                              ma86_small = 1e-30                  no
                                  ma86_u = 0.0001                 no
                              ma97_order = best                  yes
                              ma97_small = 1e-30                 yes
                            ma97_switch1 = at_start              yes
                            ma97_switch2 = od_hd_reuse           yes
                                  ma97_u = 1e-06                 yes
                               ma97_umax = 0.5                   yes
                                max_iter = 2000                  yes
                    max_refinement_steps = 20                    yes
                    min_refinement_steps = 5                     yes
                                 mu_init = 1e-06                 yes
           mu_superlinear_decrease_power = 1.25                  yes
                   nlp_scaling_min_value = 1e-08                 yes
                        option_file_name = Preset_Case:_213_NCP.opt  yes
                             output_file = ./tmp/Preset_Case:_213_NCP.output  yes
                      print_user_options = yes                   yes
        required_infeasibility_reduction = 1                      no
                                     tol = 1e-08                 yes
                   warm_start_bound_frac = 1e-20                 yes
                   warm_start_bound_push = 1e-20                 yes
                   warm_start_init_point = yes                   yes
              warm_start_mult_bound_push = 1e-20                 yes
                warm_start_mult_init_max = 1e+40                 yes
             warm_start_slack_bound_frac = 1e-20                 yes
             warm_start_slack_bound_push = 1e-20                 yes

******************************************************************************
This program contains Ipopt, a library for large-scale nonlinear optimization.
 Ipopt is released as open source code under the Eclipse Public License (EPL).
         For more information visit http://projects.coin-or.org/Ipopt
******************************************************************************

This is Ipopt version 3.12.10, running with linear solver ma97.

Number of nonzeros in equality constraint Jacobian...:   117140
Number of nonzeros in inequality constraint Jacobian.:      213
Number of nonzeros in Lagrangian Hessian.............:    47462

Total number of variables............................:    29971
                     variables with only lower bounds:    11312
                variables with lower and upper bounds:    15132
                     variables with only upper bounds:        0
Total number of equality constraints.................:    29864
Total number of inequality constraints...............:       25
        inequality constraints with only lower bounds:        4
   inequality constraints with lower and upper bounds:        0
        inequality constraints with only upper bounds:       21

iter    objective    inf_pr   inf_du lg(mu)  ||d||  lg(rg) alpha_du alpha_pr  ls
   0 -2.8542594e-02 1.51e-01 1.95e+02  -6.0 0.00e+00    -  0.00e+00 0.00e+00   0
In iteration 0, 4 Slacks too small, adjusting variable bounds
   1 -2.8542594e-02 1.51e-01 9.92e+03  -6.0 1.50e+06  -2.0 7.74e-09 1.01e-16f  1
   2 -2.8542594e-02 1.51e-01 9.92e+03  -6.0 6.46e+02  -2.5 1.15e-04 1.76e-09f  1
   3 -2.8550777e-02 1.51e-01 9.92e+03  -6.0 1.29e+03  -3.0 1.00e-05 2.53e-04f  1
   4 -2.8551004e-02 1.51e-01 9.92e+03  -6.0 1.33e+03  -3.4 1.64e-04 1.89e-05h  1
   5 -2.8563458e-02 1.51e-01 9.92e+03  -6.0 1.29e+03  -3.0 6.64e-06 4.22e-04f  1
   6 -2.8570428e-02 1.51e-01 9.92e+03  -6.0 1.27e+03  -2.6 3.30e-05 1.72e-04f  1
   7 -2.8612192e-02 1.51e-01 9.92e+03  -6.0 1.28e+03  -3.1 1.78e-04 1.15e-03f  1
   8 -2.8622684e-02 1.51e-01 9.89e+03  -6.0 1.25e+03  -2.6 2.30e-03 2.64e-04f  1
   9 -2.8644591e-02 1.51e-01 9.89e+03  -6.0 1.25e+03  -3.1 7.24e-04 6.25e-04f  1
iter    objective    inf_pr   inf_du lg(mu)  ||d||  lg(rg) alpha_du alpha_pr  ls
  10 -2.8828960e-02 1.50e-01 1.82e+04  -6.0 1.24e+03  -2.7 6.88e-03 4.72e-03f  1
  11 -2.9191431e-02 1.49e-01 1.30e+04  -6.0 1.15e+03  -3.2 4.95e-04 1.16e-02f  1
  12 -2.9367833e-02 1.48e-01 1.50e+04  -6.0 9.71e+02  -2.7 8.18e-03 4.99e-03f  1
  13 -2.9721032e-02 3.75e-01 4.37e+04  -6.0 8.58e+02  -3.2 1.96e-01 1.11e-02f  1
  14r-2.9721032e-02 3.75e-01 1.00e+03  -0.8 0.00e+00  -2.8 0.00e+00 4.94e-08R  2
  15r-2.9787496e-02 3.75e-01 1.00e+03  -0.8 1.53e+06    -  1.70e-07 1.39e-07f  1
  16r-2.9802943e-02 3.74e-01 1.45e+03  -0.8 4.43e+03    -  1.69e-05 3.73e-06f  1
  17r-2.9802943e-02 3.74e-01 9.99e+02  -0.8 0.00e+00    -  0.00e+00 4.89e-07R  2
  18r-2.9803286e-02 3.74e-01 1.11e+03  -0.8 6.25e+03    -  3.25e-06 1.75e-07f  1
  19 -2.9803467e-02 3.74e-01 2.02e+05  -6.0 4.19e+02    -  2.70e-03 2.71e-05h  1
iter    objective    inf_pr   inf_du lg(mu)  ||d||  lg(rg) alpha_du alpha_pr  ls
  20 -2.9804184e-02 3.74e-01 3.62e+05  -6.0 8.70e+02    -  2.84e-05 5.08e-05h  1
  21 -2.9806085e-02 3.74e-01 3.70e+05  -6.0 8.83e+02    -  6.38e-03 1.35e-04h  1
  22 -2.9938634e-02 3.71e-01 6.74e+05  -6.0 8.83e+02    -  2.17e-04 8.53e-03f  1
  23 -2.9945545e-02 3.71e-01 6.74e+05  -6.0 8.28e+02    -  5.51e-03 5.08e-04h  3
  24 -2.9950711e-02 3.71e-01 6.74e+05  -6.0 8.24e+02    -  1.08e-02 3.82e-04h  3
  25 -2.9952540e-02 3.71e-01 6.73e+05  -6.0 8.19e+02    -  1.49e-03 1.47e-04h  4
  26 -2.9953364e-02 3.71e-01 6.73e+05  -6.0 8.19e+02    -  5.29e-02 6.71e-05h  5
  27 -2.9953602e-02 3.70e-01 6.71e+05  -6.0 8.14e+02    -  1.59e-04 3.86e-03h  1
  28 -2.9916127e-02 3.66e-01 6.64e+05  -6.0 7.95e+02    -  1.49e-02 9.86e-03h  2
  29 -2.9865228e-02 3.63e-01 6.60e+05  -6.0 7.45e+02    -  1.26e-02 6.83e-03h  2
iter    objective    inf_pr   inf_du lg(mu)  ||d||  lg(rg) alpha_du alpha_pr  ls
  30 -2.9753472e-02 3.58e-01 1.97e+06  -6.0 7.13e+02    -  7.04e-02 1.30e-02h  2
  31 -2.9646138e-02 3.54e-01 2.59e+06  -6.0 6.59e+02    -  3.41e-02 1.10e-02h  4
  32 -2.9538807e-02 3.50e-01 5.17e+06  -6.0 6.20e+02    -  1.07e-01 1.06e-02h  4
  33 -2.9455360e-02 3.47e-01 6.54e+06  -6.0 5.89e+02    -  6.99e-02 8.50e-03h  4
  34 -2.9345486e-02 3.43e-01 9.06e+06  -6.0 5.68e+02    -  1.36e-01 1.18e-02h  3
  35 -2.9267931e-02 3.40e-01 1.08e+07  -6.0 5.65e+02    -  1.10e-01 1.05e-02h  2
  36 -2.9216844e-02 3.36e-01 1.28e+07  -6.0 5.96e+02    -  1.27e-01 9.64e-03h  1
  37 -2.9198636e-02 3.33e-01 1.49e+07  -6.0 6.44e+02    -  1.20e-01 8.13e-03h  4
  38 -2.9200443e-02 3.30e-01 1.58e+07  -6.0 6.93e+02    -  8.59e-02 1.02e-02h  3
  39 -2.9208953e-02 3.28e-01 1.76e+07  -6.0 7.23e+02    -  1.81e-01 6.79e-03h  3
iter    objective    inf_pr   inf_du lg(mu)  ||d||  lg(rg) alpha_du alpha_pr  ls
  40 -2.9239056e-02 3.25e-01 1.52e+07  -6.0 8.09e+02    -  8.85e-02 7.98e-03h  2
  41 -2.9258143e-02 3.24e-01 1.53e+07  -6.0 8.47e+02    -  5.36e-02 4.54e-03h  2
  42 -2.9280481e-02 3.23e-01 1.52e+07  -6.0 8.62e+02    -  5.32e-03 4.87e-03h  4
  43 -2.9300227e-02 3.22e-01 1.51e+07  -6.0 8.56e+02    -  5.15e-03 4.46e-03h  4
  44 -2.9335236e-02 3.20e-01 1.08e+07  -6.0 8.52e+02    -  8.01e-02 8.15e-03h  3
  45 -2.9370479e-02 3.19e-01 7.64e+06  -6.0 8.81e+02    -  2.20e-02 7.59e-03h  3
  46 -2.9388951e-02 3.18e-01 1.15e+07  -6.0 8.81e+02    -  2.27e-02 4.09e-03h  4
  47 -2.9778714e-02 5.07e-01 1.15e+07  -6.0 8.78e+02    -  1.41e-02 8.39e-02h  1
  48 -2.9785193e-02 5.04e-01 1.14e+07  -6.0 5.76e+02    -  2.37e-05 4.60e-03h  6
  49 -2.9795668e-02 5.00e-01 1.13e+07  -6.0 5.60e+02    -  3.52e-02 8.40e-03h  5
iter    objective    inf_pr   inf_du lg(mu)  ||d||  lg(rg) alpha_du alpha_pr  ls
  50 -2.9838915e-02 4.91e-01 1.10e+07  -6.0 6.09e+02    -  2.98e-02 2.56e-02h  3
  51 -2.9839446e-02 4.91e-01 1.10e+07  -6.0 7.49e+02    -  3.21e-01 5.32e-04h  5
  52 -2.9876362e-02 4.89e-01 1.09e+07  -6.0 9.19e+02    -  1.38e-01 5.68e-03h  1
  53 -3.0340127e-02 5.25e-01 1.04e+07  -6.0 9.41e+02    -  1.25e-01 5.11e-02h  1
  54 -3.0418239e-02 5.21e-01 1.03e+07  -6.0 8.35e+02    -  1.35e-01 8.64e-03h  1
  55 -3.1602628e-02 3.82e+00 8.95e+06  -6.0 8.56e+02    -  1.45e-01 1.16e-01h  1
  56 -3.1827562e-02 3.71e+00 8.25e+06  -6.0 2.80e+02  -3.3 1.23e-01 7.01e-02h  3
  57 -3.2263315e-02 3.90e+00 7.18e+06  -6.0 2.22e+02  -2.8 2.13e-03 1.14e-01h  2
  58 -3.1942101e-02 3.90e+00 1.50e+07  -6.0 2.28e+02  -3.3 4.22e-01 5.78e-02h  3
  59 -3.1939535e-02 3.84e+00 1.69e+07  -6.0 1.72e+02  -2.9 7.32e-02 3.98e-02h  3
iter    objective    inf_pr   inf_du lg(mu)  ||d||  lg(rg) alpha_du alpha_pr  ls
  60 -3.1942412e-02 3.82e+00 3.31e+07  -6.0 1.40e+02  -2.5 9.32e-02 8.15e-03h  4
  61 -3.1940112e-02 3.80e+00 4.14e+07  -6.0 1.70e+02  -2.9 1.55e-01 3.49e-03h  4
  62 -3.1941428e-02 3.80e+00 4.41e+07  -6.0 1.42e+02  -2.5 2.00e-02 1.81e-03h  7
  63 -3.1941379e-02 3.80e+00 4.42e+07  -6.0 1.78e+02  -3.0 2.47e-03 4.25e-04h  9
  64 -2.8959974e-02 4.25e+00 2.31e+07  -6.0 1.45e+02  -2.6 9.95e-05 1.18e-01h  1
  65 -2.8992016e-02 4.29e+00 4.24e+07  -6.0 1.55e+02  -3.0 4.68e-01 8.39e-02h  3
  66 -2.9239225e-02 4.30e+00 3.57e+07  -6.0 1.19e+02  -2.6 7.96e-02 1.00e-01h  3
  67 -2.9261360e-02 4.33e+00 3.53e+07  -6.0 1.24e+02  -3.1 2.14e-01 1.05e-01h  3
  68 -2.9437212e-02 4.36e+00 6.74e+07  -6.0 9.88e+01  -2.7 6.32e-01 2.40e-01h  2
  69 -2.9460731e-02 4.35e+00 6.49e+07  -6.0 9.34e+01  -3.1 9.48e-02 2.63e-02h  5
iter    objective    inf_pr   inf_du lg(mu)  ||d||  lg(rg) alpha_du alpha_pr  ls
  70 -2.9465944e-02 4.29e+00 5.61e+07  -6.0 7.83e+01  -2.7 1.38e-02 8.69e-02h  3
  71 -2.9494576e-02 4.26e+00 4.80e+07  -6.0 7.36e+01  -3.2 6.57e-01 4.54e-02h  4
  72 -2.9621797e-02 4.46e+00 3.12e+07  -6.0 6.21e+01  -2.8 5.96e-02 2.31e-01H  1
  73 -2.9717002e-02 4.50e+00 1.01e+09  -6.0 5.06e+01  -3.2 1.20e-02 7.70e-02h  2
  74 -2.9744317e-02 4.33e+00 9.75e+08  -6.0 2.57e+01  -2.8 6.58e-02 3.66e-02h  1
  75 -2.9801749e-02 4.28e+00 9.45e+08  -6.0 4.81e+01  -3.3 5.78e-03 3.07e-02h  4
  76 -2.9863325e-02 3.92e+00 8.69e+08  -6.0 2.19e+01  -2.9 3.92e-02 8.06e-02h  1
  77 -2.9983733e-02 3.99e+00 2.56e+09  -6.0 4.67e+01  -3.3 3.52e-03 4.93e-02h  3
  78 -3.0075567e-02 3.51e+00 2.29e+09  -6.0 1.54e+01  -2.9 3.95e-02 1.04e-01h  1
  79 -3.0358441e-02 3.80e+00 7.52e+09  -6.0 3.68e+01  -3.4 3.09e-03 1.24e-01h  1
iter    objective    inf_pr   inf_du lg(mu)  ||d||  lg(rg) alpha_du alpha_pr  ls
  80 -3.0364960e-02 3.63e+00 7.17e+09  -6.0 2.29e+01  -3.0 4.82e-03 4.50e-02h  1
  81 -3.0386654e-02 3.37e+00 6.60e+09  -6.0 2.58e+01  -3.4 3.02e-02 7.93e-02h  1
  82 -3.0486422e-02 2.87e+00 1.05e+10  -6.0 2.68e+01  -3.0 2.51e-03 1.45e-01h  1
  83 -3.0655446e-02 2.33e+00 7.63e+09  -6.0 2.45e+01  -3.5 1.65e-01 2.70e-01h  1
  84 -3.1564804e-02 8.65e-01 1.39e+10  -6.0 2.37e+01  -3.1 1.29e-02 5.79e-01h  1
  85 -3.2029352e-02 8.41e-01 1.22e+10  -6.0 6.33e+01  -3.6 1.34e-01 1.11e-01h  1
  86 -3.2610982e-02 1.04e+00 1.09e+10  -6.0 1.74e+02  -4.0 1.14e-01 9.21e-02h  1
  87 -3.5331295e-02 6.86e+00 3.57e+09  -6.0 8.08e+01  -3.6 2.03e-02 4.26e-01H  1
  88 -3.5191901e-02 6.61e+00 3.44e+09  -6.0 4.63e+01  -4.1 1.26e-02 3.93e-02h  1
  89 -3.5123635e-02 6.61e+00 3.43e+09  -6.0 8.59e+02  -4.6 1.42e-03 1.77e-03h  6
iter    objective    inf_pr   inf_du lg(mu)  ||d||  lg(rg) alpha_du alpha_pr  ls
  90 -3.3931996e-02 6.27e+00 2.85e+09  -6.0 5.36e+01  -4.1 5.84e-02 3.09e-01h  1
  91 -3.2724234e-02 4.13e-01 2.35e+09  -6.0 8.98e+00  -3.7 4.97e-01 1.00e+00h  1
  92 -3.2756566e-02 1.57e-03 1.80e+06  -6.0 5.27e-01  -4.2 9.81e-01 1.00e+00h  1
  93 -3.2705044e-02 3.54e-01 1.84e+04  -6.0 1.36e+01  -4.7 1.50e-01 1.00e+00h  1
  94 -3.3291581e-02 9.48e-02 1.72e+02  -6.0 3.13e+00  -5.1 7.19e-01 1.00e+00h  1
  95 -3.5096955e-02 3.04e-01 2.02e+01  -6.0 9.82e+00  -5.6 4.95e-01 1.00e+00h  1
  96 -3.6200502e-02 3.76e-01 1.02e+01  -6.0 3.13e+01  -6.1 5.36e-01 2.29e-01h  1
  97 -3.8191874e-02 1.10e+00 1.59e+01  -6.0 1.37e+01  -5.7 6.19e-01 1.00e+00h  1
  98 -3.9424888e-02 3.78e-02 1.18e+01  -6.0 8.15e+00  -5.2 1.49e-01 1.00e+00h  1
  99 -4.0154066e-02 1.06e-02 8.29e+00  -6.0 3.89e+00  -4.8 3.20e-01 9.43e-01h  1
iter    objective    inf_pr   inf_du lg(mu)  ||d||  lg(rg) alpha_du alpha_pr  ls
 100 -4.0161890e-02 1.01e-02 5.69e+00  -6.0 4.90e+00  -5.3 7.01e-01 6.28e-02f  1
 101 -4.0372567e-02 1.04e-02 1.12e+01  -6.0 1.07e+01  -5.8 7.59e-01 1.03e-01f  1
 102 -4.0808161e-02 6.75e-02 8.50e+00  -6.0 3.00e+01  -6.2 3.27e-02 1.08e-01h  1
 103 -4.2351448e-02 1.38e+00 5.60e+01  -6.0 1.27e+02  -6.7 5.08e-02 1.42e-01h  1
 104 -4.4905083e-02 1.12e+00 4.16e+01  -6.0 3.65e+01  -6.3 2.17e-01 4.84e-01h  1
 105 -4.6465053e-02 1.91e+00 4.02e+01  -6.0 1.30e+02  -6.8 2.01e-01 9.51e-02h  1
 106 -4.9363915e-02 6.36e+00 8.50e+01  -6.0 5.07e+02  -7.2 2.96e-02 7.25e-02h  1
 107 -4.9867476e-02 6.08e+00 8.23e+01  -6.0 1.20e+02  -6.8 3.41e-01 5.32e-02h  1
 108 -5.5423674e-02 3.62e+01 2.23e+02  -6.0 4.97e+02  -7.3 1.18e-01 1.79e-01h  1
 109 -5.8648442e-02 2.54e+01 2.05e+02  -6.0 1.44e+02  -6.9 1.00e+00 3.26e-01h  1
iter    objective    inf_pr   inf_du lg(mu)  ||d||  lg(rg) alpha_du alpha_pr  ls
 110 -7.7676534e-02 2.16e+01 1.47e+03  -6.0 5.15e+02  -7.4 1.18e-01 6.56e-01h  1
 111 -7.9274952e-02 1.92e+01 1.30e+03  -6.0 2.29e+02  -6.9 2.37e-01 1.12e-01h  1
 112 -8.3356390e-02 1.75e+01 1.19e+03  -6.0 9.18e+02  -7.4 9.58e-02 8.77e-02h  1
 113 -8.5249977e-02 1.73e+01 1.18e+03  -6.0 2.98e+03  -7.9 1.11e-03 1.63e-02h  1
 114 -8.5305384e-02 1.72e+01 1.18e+03  -6.0 1.99e+03  -7.5 5.14e-03 5.54e-04h  1
 115 -8.6210238e-02 1.64e+01 1.10e+03  -6.0 6.82e+02  -7.9 3.25e-02 4.68e-02f  1
 116 -8.7165222e-02 1.62e+01 1.09e+03  -6.0 1.23e+03  -8.4 1.62e-01 1.29e-02h  1
 117 -9.0712627e-02 1.50e+01 1.02e+03  -6.0 2.03e+03  -8.9 2.52e-02 1.16e-01h  1
 118 -9.2009606e-02 1.47e+01 9.90e+02  -6.0 4.13e+03  -9.4 1.21e-01 2.72e-02h  1
 119 -9.9841693e-02 1.49e+01 1.07e+03  -6.0 1.98e+03  -8.9 3.88e-01 2.36e-01h  1
iter    objective    inf_pr   inf_du lg(mu)  ||d||  lg(rg) alpha_du alpha_pr  ls
 120 -1.0385333e-01 1.46e+01 1.00e+03  -6.0 4.12e+03  -9.4 4.97e-02 9.82e-02h  1
 121 -1.0390829e-01 1.45e+01 1.00e+03  -6.0 5.23e+02  -8.1 1.05e-01 3.65e-03h  1
 122 -1.0862569e-01 1.26e+01 9.88e+02  -6.0 8.02e+02  -8.6 2.14e-01 2.14e-01h  1
 123 -1.1116003e-01 1.24e+01 9.27e+02  -6.0 1.58e+03  -9.0 2.97e-01 1.09e-01h  1
 124 -1.1445524e-01 1.17e+01 8.30e+02  -6.0 7.84e+02  -8.6 1.59e-01 2.21e-01h  1
 125 -1.1458539e-01 1.16e+01 8.19e+02  -6.0 1.24e+03  -9.1 3.22e-01 1.29e-02h  1
 126 -1.1559173e-01 8.83e+00 6.23e+02  -6.0 4.31e+02  -8.7 1.36e-01 2.39e-01h  1
 127 -1.1823467e-01 7.85e+00 3.98e+02  -6.0 1.67e+03  -9.1 3.69e-01 3.45e-01h  1
 128 -1.1965310e-01 6.45e+00 1.76e+02  -6.0 6.88e+02  -8.7 4.91e-01 5.35e-01h  1
 129 -1.2193766e-01 2.70e+01 1.31e+02  -6.0 3.71e+03  -9.2 2.58e-01 2.79e-01h  1
iter    objective    inf_pr   inf_du lg(mu)  ||d||  lg(rg) alpha_du alpha_pr  ls
 130 -1.2311134e-01 2.20e+01 1.66e+02  -6.0 1.67e+03  -9.7 8.35e-02 1.88e-01h  1
 131 -1.2339278e-01 2.11e+01 1.12e+02  -6.0 1.89e+03  -9.2 2.11e-01 4.86e-02h  1
 132 -1.2361854e-01 2.06e+01 1.08e+02  -6.0 5.00e+03  -9.7 9.93e-02 3.25e-02h  1
 133 -1.2520507e-01 1.52e+01 1.20e+02  -6.0 9.95e+02  -9.3 1.64e-01 4.28e-01h  1
 134 -1.2576471e-01 1.34e+01 5.47e+02  -6.0 2.17e+03  -9.8 2.95e-01 1.38e-01h  1
 135 -1.2640629e-01 1.05e+01 2.23e+02  -6.0 7.67e+02  -9.3 7.69e-02 2.66e-01h  1
 136 -1.2645503e-01 1.02e+01 9.85e+02  -6.0 1.42e+03  -8.9 1.98e-02 3.85e-02h  1
 137 -1.2677649e-01 7.50e+00 2.16e+03  -6.0 5.91e+02  -8.5 5.67e-01 3.29e-01h  1
 138 -1.2684158e-01 6.87e+00 2.87e+03  -6.0 2.39e+02  -8.1 1.17e-01 8.53e-02h  1
 139 -1.2688635e-01 3.23e+00 5.35e+06  -6.0 8.07e+01  -7.6 1.09e-03 5.31e-01h  1
iter    objective    inf_pr   inf_du lg(mu)  ||d||  lg(rg) alpha_du alpha_pr  ls
 140 -1.2688673e-01 3.11e+00 5.15e+06  -6.0 2.74e+02  -7.2 4.28e-02 3.71e-02h  1
 141 -1.2689014e-01 2.90e+00 4.80e+06  -6.0 5.56e+01  -7.7 3.16e-03 6.81e-02h  1
 142 -1.2689126e-01 2.88e+00 4.77e+06  -6.0 5.03e+02  -6.4 2.51e-03 6.54e-03f  1
 143 -1.2688753e-01 2.85e+00 4.72e+06  -6.0 7.53e+02  -6.8 6.88e-05 8.71e-03h  1
 144 -1.2680599e-01 3.14e-02 2.68e+02  -6.0 6.66e+00  -6.4 2.93e-01 1.00e+00h  1
 145 -1.2681166e-01 2.42e-02 1.72e+02  -6.0 2.35e+00  -6.0 1.00e+00 2.37e-01h  1
 146 -1.2686008e-01 1.23e-02 5.09e+00  -6.0 3.71e+00  -6.5 1.00e+00 1.00e+00f  1
 147 -1.2695645e-01 7.59e-03 7.15e-01  -6.0 6.86e+00  -6.9 1.00e+00 1.00e+00h  1
 148 -1.2702065e-01 1.02e-02 1.92e+01  -6.0 2.65e+01  -7.4 4.23e-01 1.89e-01h  1
 149 -1.2718106e-01 5.81e-02 2.29e-01  -6.0 5.21e+01  -7.9 1.00e+00 1.00e+00f  1
iter    objective    inf_pr   inf_du lg(mu)  ||d||  lg(rg) alpha_du alpha_pr  ls
 150 -1.2726435e-01 5.29e-02 1.02e+01  -6.0 9.24e+01  -7.5 9.39e-02 7.15e-02h  1
 151 -1.2746471e-01 3.42e-01 2.65e-01  -6.0 4.92e+01  -7.9 1.00e+00 1.00e+00h  1
 152 -1.2758008e-01 2.85e-01 2.92e+01  -6.0 1.04e+02  -8.4 4.21e-01 2.79e-01h  1
 153 -1.2780964e-01 2.01e+00 2.88e+02  -6.0 8.54e+04    -  5.07e-02 1.52e-02h  1
 154 -1.2841504e-01 1.23e+00 5.00e+01  -6.0 2.88e+02  -8.9 1.58e-02 8.25e-01h  1
 155 -1.2871767e-01 5.27e-01 2.96e+02  -6.0 6.13e+02  -9.4 2.82e-01 5.38e-01h  1
 156 -1.2969570e-01 1.09e+00 3.22e+01  -6.0 1.51e+03  -9.9 1.00e+00 1.00e+00h  1
 157 -1.2994802e-01 9.62e-01 7.22e+02  -6.0 5.19e+03 -10.3 1.02e-01 1.27e-01h  1
 158 -1.3018839e-01 1.55e+00 1.83e+04  -6.0 1.85e+03  -9.9 8.38e-01 2.55e-01h  1
 159 -1.3018982e-01 1.55e+00 1.43e+04  -6.0 1.30e+03  -9.5 4.34e-02 1.62e-03h  1
iter    objective    inf_pr   inf_du lg(mu)  ||d||  lg(rg) alpha_du alpha_pr  ls
 160 -1.3038803e-01 1.47e+00 1.51e+04  -6.0 6.45e+03 -10.0 9.30e-03 8.99e-02h  1
 161 -1.3051321e-01 9.35e-01 9.73e+03  -6.0 2.17e+02  -8.6 5.41e-03 3.26e-01f  1
 162 -1.3066496e-01 1.49e+00 7.24e+03  -6.0 2.79e+02  -8.2 4.02e-01 2.60e-01h  1
 163 -1.3099025e-01 1.70e+00 2.62e+01  -6.0 6.93e+01  -7.8 8.18e-02 1.00e+00h  1
 164 -1.3117584e-01 2.32e+00 1.71e+01  -6.0 6.05e+01  -7.4 3.58e-01 6.38e-01h  1
 165 -1.3142249e-01 2.81e+00 1.61e+01  -6.0 3.17e+01  -6.9 3.90e-01 8.87e-01h  1
 166 -1.3151549e-01 2.28e+00 1.18e+01  -6.0 1.62e+01  -6.5 8.67e-01 4.56e-01h  1
 167 -1.3155968e-01 1.47e+00 6.28e+00  -6.0 2.46e+01  -7.0 5.84e-01 3.89e-01h  1
 168 -1.3168204e-01 9.61e-01 3.83e+00  -6.0 6.39e+01  -7.5 2.58e-01 3.61e-01h  1
 169 -1.3225582e-01 2.32e+00 2.65e+01  -6.0 7.94e+02  -7.9 3.98e-01 1.77e-01h  1
iter    objective    inf_pr   inf_du lg(mu)  ||d||  lg(rg) alpha_du alpha_pr  ls
 170 -1.3227197e-01 8.70e-03 3.56e+00  -6.0 8.80e+01  -8.4 8.83e-01 1.00e+00h  1
 171 -1.3259166e-01 2.79e-01 1.27e+00  -6.0 2.80e+02  -8.9 6.66e-01 6.59e-01h  1
 172 -1.3298963e-01 1.70e+00 1.74e+01  -6.0 4.86e+02  -9.4 5.83e-01 9.26e-01h  1
 173 -1.3307790e-01 1.57e+00 1.65e+01  -6.0 1.18e+03  -9.8 9.07e-02 1.04e-01h  1
 174 -1.3349818e-01 5.69e+00 5.02e+01  -6.0 3.88e+03 -10.3 4.87e-01 2.66e-01h  1
 175 -1.3403679e-01 1.58e+01 2.17e+02  -6.0 1.05e+04 -10.8 1.12e-01 1.48e-01h  1
 176 -1.3403959e-01 1.57e+01 2.16e+02  -6.0 7.11e+04    -  6.93e-03 2.08e-03h  1
 177 -1.3412359e-01 1.45e+01 2.02e+02  -6.0 3.98e+03 -11.3 2.54e-01 7.80e-02f  1
 178 -1.3414738e-01 2.58e+01 2.00e+02  -6.0 3.53e+04    -  7.83e-02 3.96e-02h  1
 179 -1.3415213e-01 2.64e+01 2.02e+02  -6.0 8.04e+03    -  5.62e-02 7.16e-03H  1
iter    objective    inf_pr   inf_du lg(mu)  ||d||  lg(rg) alpha_du alpha_pr  ls
 180 -1.3451085e-01 1.69e+01 1.67e+02  -6.0 2.30e+03    -  6.03e-02 3.61e-01h  1
 181 -1.3457657e-01 1.28e+01 1.38e+02  -6.0 1.66e+03    -  1.12e-01 2.42e-01h  1
 182 -1.3474938e-01 1.18e+01 1.30e+02  -6.0 7.24e+02  -8.1 2.84e-03 8.00e-02h  1
 183 -1.3465444e-01 5.90e+00 1.32e+02  -6.0 4.45e+01  -8.6 2.16e-01 4.99e-01h  1
 184 -1.3469527e-01 5.87e+00 1.29e+02  -6.0 7.14e+03  -9.1 1.54e-04 5.31e-03h  1
 185 -1.3466395e-01 5.87e+00 1.40e+02  -6.0 3.76e+04  -7.8 9.90e-05 3.15e-04h  1
 186 -1.3479657e-01 6.71e+00 1.45e+02  -6.0 1.86e+02  -8.2 2.27e-03 1.36e-01f  1
 187 -1.3531522e-01 4.49e+01 1.51e+02  -6.0 4.57e+01  -7.8 4.10e-01 1.00e+00h  1
 188 -1.3542832e-01 3.93e+01 1.12e+02  -6.0 3.52e+01  -8.3 3.49e-01 1.27e-01h  1
 189 -1.3550373e-01 3.20e+01 1.72e+02  -6.0 3.95e+01  -8.8 1.00e+00 1.79e-01h  1
iter    objective    inf_pr   inf_du lg(mu)  ||d||  lg(rg) alpha_du alpha_pr  ls
 190 -1.3584550e-01 1.81e+00 7.21e+00  -6.0 7.44e+01  -9.2 1.00e+00 1.00e+00h  1
 191 -1.3587708e-01 1.50e+00 5.54e+02  -6.0 3.35e+02  -9.7 1.00e+00 2.11e-01h  1
 192 -1.3590299e-01 1.89e+00 6.60e+02  -6.0 2.66e+03    -  7.28e-01 1.28e-01h  1
 193 -1.3611592e-01 7.11e+00 1.62e+02  -6.0 9.94e+02    -  4.86e-01 1.00e+00h  1
 194 -1.3616589e-01 5.69e+00 4.94e+02  -6.0 5.93e+02 -10.2 4.88e-01 2.45e-01h  1
 195 -1.3633210e-01 5.64e+00 3.74e+01  -6.0 5.75e+02    -  1.00e+00 1.00e+00h  1
 196 -1.3636481e-01 5.71e+00 6.24e+02  -6.0 1.92e+03 -10.7 1.68e-02 1.82e-01h  2
 197 -1.3640303e-01 4.75e+00 1.03e+03  -6.0 1.74e+02  -9.3 2.29e-01 1.68e-01h  1
 198 -1.3643734e-01 6.40e-01 2.57e+05  -6.0 1.40e+02  -9.8 1.29e-02 1.00e+00h  1
 199 -1.3645059e-01 9.08e-01 2.48e+05  -6.0 4.32e+03    -  1.75e-01 3.54e-02h  2
iter    objective    inf_pr   inf_du lg(mu)  ||d||  lg(rg) alpha_du alpha_pr  ls
 200 -1.3646295e-01 7.50e-01 1.24e+05  -6.0 1.15e+02  -9.4 1.00e+00 5.00e-01h  2
 201 -1.3646603e-01 8.41e-01 1.22e+05  -6.0 6.71e+03    -  2.00e-02 1.25e-02h  4
 202 -1.3651185e-01 4.09e+00 1.31e+02  -6.0 1.53e+01  -8.1 1.00e+00 1.00e+00h  1
 203 -1.3659036e-01 4.60e-01 8.50e-01  -6.0 5.56e+01  -8.5 8.64e-01 1.00e+00h  1
 204 -1.3663922e-01 2.25e+00 1.10e+01  -6.0 1.34e+03  -9.0 6.03e-02 1.40e-02h  3
 205 -1.3671109e-01 2.05e+00 4.92e+00  -6.0 2.56e+01  -8.6 1.00e+00 1.00e+00h  1
 206 -1.3672400e-01 2.13e+00 1.57e+01  -6.0 1.55e+03    -  2.51e-01 6.66e-02h  2
 207 -1.3673485e-01 2.61e+00 2.84e+01  -6.0 1.71e+03    -  3.09e-01 8.33e-02h  2
 208 -1.3677757e-01 8.22e-01 6.38e+00  -6.0 4.67e+01  -9.1 1.00e+00 1.00e+00h  1
 209 -1.3677899e-01 9.07e-01 3.68e+01  -6.0 2.43e+03    -  3.09e-01 3.47e-02h  2
iter    objective    inf_pr   inf_du lg(mu)  ||d||  lg(rg) alpha_du alpha_pr  ls
 210 -1.3676713e-01 1.01e+00 8.90e+01  -6.0 7.94e+03    -  9.19e-02 9.34e-03h  3
 211 -1.3677510e-01 6.48e-02 2.72e+01  -6.0 9.62e+00  -8.6 6.81e-01 1.00e+00h  1
 212 -1.3676957e-01 2.44e-01 4.35e+01  -6.0 9.35e+02    -  1.00e+00 5.68e-02h  2
 213 -1.3677782e-01 1.22e-01 2.50e-01  -6.0 3.91e+01  -9.1 1.00e+00 1.00e+00h  1
 214 -1.3678762e-01 1.06e+00 4.79e+00  -6.0 1.77e+02  -9.6 1.00e+00 1.00e+00h  1
 215 -1.3676572e-01 1.22e+00 3.54e+01  -6.0 1.25e+03    -  6.36e-01 2.01e-01h  2
 216 -1.3670276e-01 2.66e+00 2.59e+01  -6.0 6.78e+02    -  1.00e+00 5.00e-01h  2
 217 -1.3669318e-01 2.74e+00 1.48e+02  -6.0 1.83e+03    -  8.35e-01 6.65e-02h  3
 218 -1.3666042e-01 8.19e-01 7.97e-01  -6.0 2.19e+02 -10.1 1.00e+00 1.00e+00h  1
 219 -1.3669277e-01 5.56e-01 4.93e-01  -6.0 1.80e+02  -9.7 1.00e+00 1.00e+00h  1
iter    objective    inf_pr   inf_du lg(mu)  ||d||  lg(rg) alpha_du alpha_pr  ls
 220 -1.3655232e-01 8.52e+00 8.79e+00  -6.0 1.97e+03    -  8.78e-01 1.00e+00H  1
 221 -1.3655238e-01 8.52e+00 8.70e+00  -6.0 5.69e+04    -  3.44e-03 1.26e-04h  9
 222 -1.3654880e-01 2.24e+00 6.79e+00  -6.0 2.10e+02 -10.1 1.00e+00 6.94e-01h  1
 223 -1.3654013e-01 7.31e-01 4.11e-01  -6.0 2.11e+02 -10.6 1.00e+00 1.00e+00h  1
 224 -1.3652805e-01 1.27e-01 1.65e-01  -6.0 8.56e+01 -10.2 1.00e+00 1.00e+00h  1
 225 -1.3652743e-01 1.94e+00 1.76e-02  -6.0 1.05e+03 -10.7 1.00e+00 1.00e+00H  1
 226 -1.3651514e-01 2.27e-01 9.87e-02  -6.0 1.17e+02 -10.2 1.00e+00 1.00e+00h  1
 227 -1.3651312e-01 4.53e-01 1.69e+01  -6.0 8.04e+03 -10.7 4.62e-02 1.43e-02h  4
 228 -1.3650444e-01 4.59e-02 7.41e-02  -6.0 5.08e+01  -9.4 1.00e+00 1.00e+00h  1
 229 -1.3650737e-01 1.23e-01 6.31e-02  -6.0 8.39e+01  -9.9 1.00e+00 1.00e+00h  1
iter    objective    inf_pr   inf_du lg(mu)  ||d||  lg(rg) alpha_du alpha_pr  ls
 230 -1.3651162e-01 2.37e+00 1.39e-01  -6.0 3.71e+02 -10.3 1.00e+00 1.00e+00H  1
 231 -1.3649830e-01 2.01e-01 9.52e-02  -6.0 1.09e+02  -9.9 1.00e+00 1.00e+00h  1
 232 -1.3650933e-01 2.55e+00 2.18e-02  -6.0 3.80e+02 -10.4 1.00e+00 1.00e+00H  1
 233 -1.3649566e-01 1.22e+00 2.49e+00  -6.0 7.07e+03 -10.9 6.79e-02 6.39e-02h  3
 234 -1.3651031e-01 2.25e+00 2.63e-01  -6.0 5.97e+02 -10.4 1.00e+00 1.00e+00H  1
 235 -1.3649170e-01 1.39e+00 5.58e+00  -6.0 1.86e+04    -  2.97e-02 2.41e-02h  3
 236 -1.3647841e-01 9.09e-03 2.13e-02  -6.0 1.06e+01  -9.1 1.00e+00 1.00e+00h  1
 237 -1.3648193e-01 3.29e-04 1.62e-02  -6.0 5.36e+00  -9.6 1.00e+00 1.00e+00h  1
 238 -1.3648207e-01 6.64e-05 3.65e-04  -6.0 5.95e-01  -9.2 1.00e+00 1.00e+00h  1
 239 -1.3648225e-01 4.08e-03 4.94e-04  -6.0 4.73e+00  -9.6 1.00e+00 1.00e+00h  1
iter    objective    inf_pr   inf_du lg(mu)  ||d||  lg(rg) alpha_du alpha_pr  ls
 240 -1.3648232e-01 6.96e-04 4.60e-05  -6.0 2.11e+00  -9.2 1.00e+00 1.00e+00h  1
 241 -1.3648252e-01 2.32e-02 8.96e-04  -6.0 1.37e+01  -9.7 1.00e+00 1.00e+00h  1
 242 -1.3648259e-01 3.74e-02 7.15e+00  -6.0 1.48e+02 -10.2 1.00e+00 1.03e-01h  4
 243 -1.3648316e-01 6.90e-02 2.24e+00  -6.0 7.55e+01    -  1.00e+00 5.00e-01h  2
 244 -1.3648377e-01 5.23e-02 2.00e+00  -6.0 7.08e+01    -  1.00e+00 5.00e-01h  2
 245 -1.3648459e-01 9.26e-03 4.01e-03  -6.0 2.25e+01    -  1.00e+00 1.00e+00h  1
 246 -1.3648469e-01 5.15e-05 1.97e-05  -6.0 1.67e+00    -  1.00e+00 1.00e+00h  1
 247 -1.3648469e-01 1.45e-09 2.72e-10  -6.0 8.85e-03    -  1.00e+00 1.00e+00h  1
 248 -1.3711075e-01 1.00e+01 3.29e+01  -7.5 4.26e+03    -  1.56e-01 1.88e-01f  1
 249 -1.3718653e-01 1.00e+01 2.27e+01  -7.5 4.97e+03    -  6.10e-02 2.39e-02h  1
iter    objective    inf_pr   inf_du lg(mu)  ||d||  lg(rg) alpha_du alpha_pr  ls
 250 -1.3756941e-01 1.22e+01 3.15e+01  -7.5 3.91e+03    -  3.28e-01 2.17e-01h  1
 251 -1.3780148e-01 2.47e+01 2.95e+01  -7.5 6.06e+03    -  2.93e-02 1.92e-01h  1
 252 -1.3784589e-01 2.35e+01 2.89e+01  -7.5 2.46e+03    -  1.84e-01 5.23e-02h  1
 253 -1.3785056e-01 2.33e+01 3.99e+01  -7.5 1.10e+02  -8.8 8.29e-02 8.19e-03h  1
 254 -1.3805268e-01 1.34e+01 3.48e+01  -7.5 2.44e+02  -9.3 4.70e-01 4.28e-01f  1
 255 -1.3815639e-01 1.12e+01 3.22e+01  -7.5 9.89e+02  -9.8 3.14e-02 1.63e-01h  1
 256 -1.3822325e-01 1.02e+01 4.67e+01  -7.5 2.70e+03    -  3.34e-01 1.05e-01h  1
 257 -1.3823180e-01 1.01e+01 4.85e+01  -7.5 1.13e+03  -9.4 2.98e-02 1.21e-02h  1
 258 -1.3825669e-01 9.74e+00 4.12e+01  -7.5 1.13e+04    -  1.46e-05 3.90e-02f  1
 259 -1.3826320e-01 9.64e+00 4.51e+01  -7.5 3.70e+03  -9.8 5.75e-02 1.00e-02f  1
iter    objective    inf_pr   inf_du lg(mu)  ||d||  lg(rg) alpha_du alpha_pr  ls
 260 -1.3840092e-01 4.94e+01 2.31e+01  -7.5 6.38e+03    -  7.67e-05 2.46e-01f  1
 261 -1.3848509e-01 3.97e+01 8.18e+02  -7.5 1.32e+03    -  2.30e-04 2.00e-01h  1
 262 -1.3854125e-01 3.25e+01 6.40e+02  -7.5 1.28e+03 -10.3 1.27e-01 2.17e-01h  1
 263 -1.3859345e-01 2.71e+01 5.33e+02  -7.5 1.48e+03    -  1.77e-01 1.67e-01h  1
 264 -1.3870882e-01 1.64e+01 3.24e+02  -7.5 1.31e+03    -  9.43e-02 3.93e-01h  1
 265 -1.3871409e-01 1.62e+01 3.16e+02  -7.5 4.12e+03    -  2.75e-01 2.36e-02h  1
 266 -1.3880164e-01 1.11e+01 2.08e+02  -7.5 8.34e+02    -  5.97e-01 3.40e-01h  1
 267 -1.3890281e-01 7.92e+00 1.23e+02  -7.5 6.77e+02    -  3.33e-01 4.10e-01h  1
 268 -1.3899216e-01 5.15e+00 7.87e+01  -7.5 5.82e+02    -  4.62e-01 3.60e-01h  1
 269 -1.3923152e-01 1.34e+00 3.67e+02  -7.5 2.14e+02 -10.8 4.08e-01 1.00e+00h  1
iter    objective    inf_pr   inf_du lg(mu)  ||d||  lg(rg) alpha_du alpha_pr  ls
 270 -1.3933919e-01 4.45e+00 6.70e+02  -7.5 1.36e+03    -  2.09e-01 4.57e-01h  1
 271 -1.3945078e-01 2.79e+00 6.67e+01  -7.5 6.23e+02    -  6.15e-01 4.88e-01h  1
 272 -1.3950830e-01 2.17e+00 1.45e+03  -7.5 2.44e+02 -11.3 6.69e-01 2.52e-01h  1
 273 -1.3952180e-01 2.04e+00 2.50e+03  -7.5 3.48e+02 -10.8 4.32e-01 5.86e-02h  1
 274 -1.3960580e-01 1.50e+00 2.11e+03  -7.5 6.82e+02 -11.3 6.06e-01 3.71e-01h  1
 275 -1.3967462e-01 5.43e+00 1.35e+03  -7.5 1.76e+03    -  2.18e-01 2.85e-01h  1
 276 -1.3968482e-01 5.52e+00 5.71e+05  -7.5 4.35e+03    -  5.43e-04 5.57e-02h  1
 277 -1.3970478e-01 8.08e+00 5.14e+05  -7.5 5.85e+03    -  4.28e-02 9.99e-02h  1
 278 -1.3970509e-01 8.06e+00 5.13e+05  -7.5 3.95e+04    -  9.31e-03 2.09e-03h  1
 279 -1.3972779e-01 4.57e+01 6.53e+03  -7.5 1.89e+03    -  2.82e-01 1.00e+00h  1
iter    objective    inf_pr   inf_du lg(mu)  ||d||  lg(rg) alpha_du alpha_pr  ls
 280 -1.3972866e-01 4.53e+01 6.99e+03  -7.5 7.35e+03    -  2.79e-01 8.35e-03h  1
 281 -1.3973079e-01 4.27e+01 6.51e+03  -7.5 2.88e+02  -8.2 4.04e-03 5.78e-02h  1
 282 -1.3973103e-01 2.36e+01 2.89e+03  -7.5 3.56e+01  -8.7 9.02e-02 4.46e-01h  1
 283 -1.3975347e-01 1.47e+01 1.47e+03  -7.5 1.01e+03    -  1.55e-01 1.00e+00h  1
 284 -1.3975113e-01 9.75e-03 7.46e+02  -7.5 1.19e+01  -9.1 5.44e-01 1.00e+00h  1
 285 -1.3980062e-01 6.04e+01 6.53e+02  -7.5 9.53e+03    -  3.95e-02 2.16e-01h  1
 286 -1.3980804e-01 4.81e+01 6.21e+02  -7.5 1.66e+03    -  5.70e-02 2.37e-01h  1
 287 -1.3981735e-01 5.03e+01 5.19e+02  -7.5 1.31e+04    -  1.75e-01 3.85e-02h  1
 288 -1.3982953e-01 3.89e+01 4.44e+02  -7.5 1.80e+03    -  1.53e-01 4.32e-01h  1
 289 -1.3983358e-01 3.77e+01 4.08e+02  -7.5 4.32e+03    -  8.13e-02 5.60e-02h  1
iter    objective    inf_pr   inf_du lg(mu)  ||d||  lg(rg) alpha_du alpha_pr  ls
 290 -1.3984452e-01 2.88e+01 3.61e+02  -7.5 1.49e+03    -  1.16e-01 4.65e-01h  1
 291 -1.3984616e-01 1.26e+00 3.26e+02  -7.5 1.86e+02    -  9.57e-02 1.00e+00h  1
 292 -1.3984653e-01 8.94e-03 5.73e-01  -7.5 2.16e+01  -9.6 1.00e+00 1.00e+00h  1
 293 -1.3987604e-01 5.50e+01 1.85e+02  -7.5 1.08e+04    -  7.45e-02 1.64e-01h  1
 294 -1.3986354e-01 3.73e+01 1.14e+02  -7.5 1.47e+03    -  4.41e-02 5.00e-01h  2
 295 -1.3986442e-01 1.39e-01 1.46e+01  -7.5 7.63e+01 -10.1 4.82e-01 1.00e+00h  1
 296 -1.3988279e-01 2.22e+01 8.50e+01  -7.5 4.56e+03    -  3.43e-02 2.39e-01h  1
 297 -1.3986464e-01 5.98e+00 1.57e+02  -7.5 1.21e+03    -  3.99e-01 1.00e+00H  1
 298 -1.3988342e-01 1.83e+01 1.77e+02  -7.5 4.80e+03    -  2.09e-01 2.31e-01h  1
 299 -1.3988516e-01 2.39e-01 1.89e+01  -7.5 1.04e+02    -  1.00e+00 1.00e+00h  1
iter    objective    inf_pr   inf_du lg(mu)  ||d||  lg(rg) alpha_du alpha_pr  ls
 300 -1.3988511e-01 1.53e-04 2.48e-02  -7.5 2.87e+00    -  1.00e+00 1.00e+00h  1
 301 -1.3988512e-01 3.08e-06 1.44e-05  -7.5 3.91e-01    -  1.00e+00 1.00e+00h  1
 302 -1.3988512e-01 3.05e-10 3.27e-09  -7.5 3.19e-03    -  1.00e+00 1.00e+00h  1
 303 -1.3988928e-01 1.93e-01 2.35e+00  -9.0 2.25e+02    -  3.70e-01 4.44e-01h  1
 304 -1.3989845e-01 4.67e+01 1.51e+02  -9.0 5.07e+04    -  4.83e-02 3.02e-02h  1
 305 -1.3989999e-01 4.70e+01 1.57e+02  -9.0 4.03e+04    -  2.30e-02 5.39e-03h  1
 306 -1.3991211e-01 5.14e+01 1.73e+02  -9.0 2.53e+03    -  2.10e-02 6.22e-01h  1
 307 -1.3991249e-01 5.10e+01 1.71e+02  -9.0 4.27e+03    -  4.19e-04 7.75e-03h  1
 308 -1.3991803e-01 4.05e+01 8.25e+01  -9.0 1.51e+03    -  1.49e-02 2.73e-01h  1
 309 -1.3991924e-01 3.95e+01 8.03e+01  -9.0 3.06e+03    -  1.57e-02 2.69e-02h  1
iter    objective    inf_pr   inf_du lg(mu)  ||d||  lg(rg) alpha_du alpha_pr  ls
 310 -1.3992709e-01 3.26e+01 5.65e+01  -9.0 1.64e+03    -  3.24e-01 2.90e-01h  1
 311 -1.3992965e-01 3.06e+01 5.25e+01  -9.0 1.69e+03    -  4.56e-02 7.12e-02h  1
 312 -1.3993357e-01 2.82e+01 1.52e+02  -9.0 1.70e+03    -  2.18e-01 9.46e-02h  1
 313 -1.3995125e-01 2.55e+01 5.16e+04  -9.0 1.62e+03    -  4.88e-03 3.95e-01h  1
 314 -1.3995195e-01 2.53e+01 5.12e+04  -9.0 1.72e+03    -  4.28e-01 8.29e-03h  1
 315 -1.3995464e-01 2.44e+01 4.93e+04  -9.0 3.00e+03    -  2.00e-02 3.60e-02h  1
 316 -1.3995572e-01 2.37e+01 4.78e+04  -9.0 5.57e+03    -  5.33e-03 3.04e-02h  1
 317 -1.3995724e-01 2.24e+01 4.51e+04  -9.0 8.81e+02    -  3.30e-02 5.63e-02h  1
 318 -1.3996366e-01 1.75e+01 3.51e+04  -9.0 2.57e+02    -  1.07e-01 2.21e-01h  1
 319 -1.3998206e-01 7.74e+00 1.43e+04  -9.0 2.70e+02    -  7.65e-02 5.93e-01h  1
iter    objective    inf_pr   inf_du lg(mu)  ||d||  lg(rg) alpha_du alpha_pr  ls
 320 -1.4002221e-01 1.63e+00 5.87e+02  -9.0 2.56e+02    -  6.49e-01 1.00e+00h  1
 321 -1.4003533e-01 1.25e+00 5.74e+02  -9.0 2.74e+02    -  3.30e-01 1.84e-01h  1
 322 -1.4005740e-01 1.08e+00 7.11e+03  -9.0 3.23e+02    -  8.39e-01 2.46e-01h  1
 323r-1.4005740e-01 1.08e+00 1.00e+03  -0.2 0.00e+00    -  0.00e+00 5.74e-09R  2
 324r-1.4005772e-01 1.08e+00 6.99e+03  -0.2 4.59e+05    -  7.38e-09 3.20e-09f  1
 325 -1.4005788e-01 1.06e+00 1.54e+04  -9.0 4.59e+01    -  1.10e-06 1.69e-02h  1
 326 -1.4005603e-01 1.05e+00 1.53e+04  -9.0 7.38e+02    -  3.27e-04 8.33e-03h  1
 327 -1.4005581e-01 1.05e+00 1.53e+04  -9.0 9.69e+01    -  1.38e-03 1.66e-03h  1
 328 -1.4005393e-01 1.03e+00 1.50e+04  -9.0 8.63e+01    -  6.17e-03 1.79e-02h  1
 329 -1.4002714e-01 7.29e-01 5.58e+04  -9.0 9.01e+01    -  3.74e-02 2.95e-01h  1
iter    objective    inf_pr   inf_du lg(mu)  ||d||  lg(rg) alpha_du alpha_pr  ls
 330 -1.4002061e-01 6.69e-01 5.82e+04  -9.0 1.02e+02    -  1.55e-02 8.24e-02h  1
In iteration 330, 1 Slack too small, adjusting variable bound
 331 -1.3998852e-01 3.95e-01 5.96e+04  -9.0 1.04e+02    -  2.59e-04 4.10e-01h  1
 332 -1.3998361e-01 3.47e-01 7.47e+05  -9.0 8.19e+01    -  1.54e-02 1.22e-01h  1
 333 -1.3994632e-01 1.52e-01 4.63e+07  -9.0 7.94e+01    -  1.47e-01 1.00e+00h  1
 334 -1.3995298e-01 1.37e-01 3.59e+07  -9.0 1.14e+02    -  2.43e-01 1.32e-01h  1
 335 -1.3993068e-01 1.12e-01 4.88e+07  -9.0 7.14e+01    -  3.78e-01 8.88e-01h  1
 336 -1.3993177e-01 1.15e-01 4.22e+07  -9.0 1.99e+02  -5.2 8.48e-07 1.40e-01h  3
 337 -1.3993196e-01 4.00e-02 9.02e+05  -9.0 4.06e+01  -4.7 6.23e-01 1.00e+00h  1
 338 -1.3993203e-01 3.32e-02 7.51e+05  -9.0 2.26e+00  -4.3 8.11e-01 1.69e-01h  1
 339 -1.3993180e-01 6.10e-03 2.99e+04  -9.0 1.59e+01    -  3.44e-06 1.00e+00h  1
iter    objective    inf_pr   inf_du lg(mu)  ||d||  lg(rg) alpha_du alpha_pr  ls
 340 -1.3993281e-01 7.43e-07 1.93e+00  -9.0 1.55e-01    -  9.92e-01 1.00e+00h  1
 341 -1.3993668e-01 3.64e-04 1.86e+00  -9.0 1.04e+02    -  1.06e-01 3.73e-02h  1
 342 -1.4001598e-01 7.98e-03 3.15e-01  -9.0 2.08e+01    -  6.57e-01 8.70e-01f  1
 343 -1.4006750e-01 1.10e-02 2.68e-01  -9.0 9.24e+01    -  1.41e-01 1.41e-01f  1
 344 -1.4007529e-01 1.05e-02 1.02e+00  -9.0 4.31e+01    -  6.23e-01 5.96e-02h  1
 345 -1.4008130e-01 2.21e-02 9.47e-01  -9.0 3.48e+02    -  6.76e-01 8.78e-02h  1
 346 -1.4009793e-01 6.98e-02 7.48e-01  -9.0 1.08e+02    -  8.63e-01 4.80e-01h  1
 347 -1.4011057e-01 1.35e-01 3.50e-01  -9.0 1.19e+02    -  6.35e-01 5.85e-01h  1
 348 -1.4012249e-01 2.62e-01 1.95e-02  -9.0 1.11e+02    -  8.33e-01 9.77e-01h  1
 349 -1.4011646e-01 2.32e-01 2.20e+00  -9.0 1.56e+02    -  2.77e-01 5.49e-01H  1
iter    objective    inf_pr   inf_du lg(mu)  ||d||  lg(rg) alpha_du alpha_pr  ls
 350 -1.4011754e-01 1.59e-01 3.18e-01  -9.0 8.51e+01    -  6.60e-01 1.00e+00h  1
 351 -1.4011441e-01 8.97e-04 7.34e-02  -9.0 6.23e+00    -  8.88e-01 1.00e+00h  1
 352 -1.4011445e-01 4.45e-05 6.46e-06  -9.0 1.42e+00    -  1.00e+00 1.00e+00h  1
 353 -1.4011445e-01 1.99e-09 9.76e-11  -9.0 9.54e-03    -  1.00e+00 1.00e+00h  1

Number of Iterations....: 353

                                   (scaled)                 (unscaled)
Objective...............:  -1.4011444729128408e-01   -1.4011444729128408e-01
Dual infeasibility......:   9.7550661992684695e-11    9.7550661992684695e-11
Constraint violation....:   1.0195344504721728e-09    1.9863364286720753e-09
Complementarity.........:   9.0909099621907480e-10    9.0909099621907480e-10
Overall NLP error.......:   1.0195344504721728e-09    1.9863364286720753e-09


Number of objective function evaluations             = 637
Number of objective gradient evaluations             = 353
Number of equality constraint evaluations            = 637
Number of inequality constraint evaluations          = 638
Number of equality constraint Jacobian evaluations   = 357
Number of inequality constraint Jacobian evaluations = 357
Number of Lagrangian Hessian evaluations             = 353
Total CPU secs in IPOPT (w/o function evaluations)   =    174.953
Total CPU secs in NLP function evaluations           =      6.272

EXIT: Optimal Solution Found.
